12 48 9 10
7 14 13 17 2 12 19 3 18 18 8 15 20 14 9 1 12 2 11 15 4 5 12 3 13 9 16 6 11 18 20 19 19 13 7 9 3 12 2 3 3 7 1 16 15 14 14 1 
6.89 3.39 10.02 9.46 0.04 1.48 5.13 3.79 10.09 12.13 2.29 14.93 9.62 9.72 15.07 2.14 13.62 2.27 8.05 6.03 7.9 1.15 14.9 13.36 4.87 4.72 7.81 1.65 14.49 4.2 0.75 10.95 11.42 7.18 1.45 2.77 10.38 15.91 7.64 10.76 7.27 1.48 8.99 4.4 12.09 12.95 15.22 2 
3.81 7.37 14.11 7.9 0.88 10.53 8.19 7.38 6.04 0.69 14.73 0.04 2.53 14.45 1.54 2.39 15.38 6.27 5.26 1.28 2.5 9.14 6.17 15.66 1.7 6.94 8.09 1.21 8.28 0.14 3.8 7.12 10.25 5.27 8.95 1.87 15.88 8.5 15.32 1.98 2.03 7.77 3.28 9.51 6.18 14.16 2.59 13.02 
5.46 1.7 15.59 6.85 2.96 6.5 2.94 8.11 1.89 3.09 3.03 8.5 9.24 6.62 11.53 14.98 0.68 8.86 5.89 7.48 11.75 15.76 8.96 3.95 2.56 15.9 14.01 5.7 7.9 2.33 8.65 7.47 9.66 5.02 4.05 15.1 13.78 0.2 2.28 5.46 1.92 1.51 13.74 4.87 4.32 9.61 1.66 3.92 
1.29 0.02 13.84 7.82 1.11 6 9.85 7 7.35 9.98 14.08 9.5 6.22 7.39 3.18 12.17 13.5 7.47 5 1.2 10.91 1.32 5.68 14.16 1.57 0.37 9.11 8.16 6.85 0.08 4.5 3.36 3.26 8.94 9.18 9.21 10.63 14.55 15.84 14.52 1.71 2.26 13.25 1.49 12.48 6.56 3.31 1.1 
3.7 10.51 5.6 7.95 9.32 1.92 13.7 1.6 7.71 15.68 5.49 2.89 10.62 6.72 6.66 8.8 1.37 2.01 8.7 5.43 7.47 12.45 10.28 14.06 0.07 8.39 14 0.65 1.78 14.18 8.75 7.76 6.7 6.46 12.32 6 13.67 13.68 12.9 3.16 11.33 12.84 0.88 12.9 13.37 4.68 3.8 12.71 
14.91 6.96 15.71 9.58 15.83 5.45 5.1 1.53 4.11 0.59 6.83 13.51 5.03 3.32 3.79 13.73 12.72 9.35 10.78 8.79 7.45 15.91 11.93 10.04 10.05 13.93 4.72 2.36 5.58 3.76 5.63 12.79 8.63 5.39 12.53 3.47 4.27 6.5 7.72 9.93 1.16 4.42 1.61 14.17 7.38 3.9 14.8 7.74 
13.44 11.94 1.8 5.82 0.13 0.08 14.14 10.95 0.04 10.28 4.96 5.29 12.92 12.84 7.77 11.92 1.61 14.88 14.56 9.35 11.37 13.52 7.64 14.52 7.78 4.4 4.67 1.83 15.9 11.17 14.81 5.27 14.67 15.37 7.9 2.64 12 1.68 0.96 3.53 14.72 0.87 2.41 0.39 11.72 14.12 9.9 1.51 
13.26 11.16 3.42 13.66 8.45 14.81 11.58 14.54 15.78 1 7 9.26 7.87 11.38 12.73 10.02 0.71 14.72 2.03 6.67 3.15 15.66 9.72 0.25 11.52 10 10.34 6.5 10.3 13.86 7.6 13.04 7.13 7.53 8.57 7.86 9.11 15.72 0.88 14.52 8.92 7.51 8.63 7.6 5.95 15.97 9.84 9.9 
3.12 10.75 15.16 9.24 5.36 10.87 3.76 6.16 11.87 14.83 11.19 4.42 8.05 12.28 6.29 7.7 13.79 3.18 11.77 8.99 5.12 10.6 7.22 10.77 7.4 9.81 0.34 0.3 4.6 4.49 14 9.25 13.88 14.25 10.22 1.69 14.36 5.54 12.25 1.24 11.03 0.19 7.29 11.87 13.31 0.79 8.66 5.36 
8 8 8 8 8 8 8 8 8 8 8 8 8 8 8 8 8 8 8 8 8 8 8 8 8 8 8 8 8 8 8 8 8 8 8 8 8 8 8 8 8 8 8 8 8 8 8 8 
10.51 12.08 14.57 8.33 9.15 9.56 7.12 2.52 10.5 9.46 4.7 11.25 6.8 5.39 3.13 3.71 3.12 14.79 8.34 13 14.13 10.02 7.4 14.55 5.86 9.48 7.66 3.61 8.06 4.16 3.32 2.23 9.97 4.85 10.9 1.48 8.21 2.87 1.85 14.49 3.6 0.97 0.86 10.9 10.41 11.09 15.28 12.57 
10.84 3.42 12.09 3.28 10.16 13.3 0.93 13.07 4.29 15.52 2.22 1.86 10.67 1.81 13.02 4.58 14.37 2.6 2.02 2.34 8.65 5.62 0.27 14.85 9.19 7.29 2.94 1.62 1.9 11.61 12.11 2.17 6.71 2.36 14.31 15.39 8.41 8.06 8.3 4.31 3.6 2.67 4.05 14.32 9.64 6.94 13.09 9.71 
1 1 1 1 1 1 1 1 1 1 1 1 1 1 1 1 1 1 1 1 1 1 1 1 1 1 1 1 1 1 1 1 1 1 1 1 1 1 1 1 1 1 1 1 1 1 1 1 
1 1 1 1 1 1 1 1 1 1 1 1 1 1 1 1 1 1 1 1 1 1 1 1 1 1 1 1 1 1 1 1 1 1 1 1 1 1 1 1 1 1 1 1 1 1 1 1 
1 1 1 1 1 1 1 1 1 1 1 1 1 1 1 1 1 1 1 1 1 1 1 1 1 1 1 1 1 1 1 1 1 1 1 1 1 1 1 1 1 1 1 1 1 1 1 1 
1 1 1 1 1 1 1 1 1 1 1 1 1 1 1 1 1 1 1 1 1 1 1 1 1 1 1 1 1 1 1 1 1 1 1 1 1 1 1 1 1 1 1 1 1 1 1 1 
1 1 1 1 1 1 1 1 1 1 1 1 1 1 1 1 1 1 1 1 1 1 1 1 1 1 1 1 1 1 1 1 1 1 1 1 1 1 1 1 1 1 1 1 1 1 1 1 
1 1 1 1 1 1 1 1 1 1 1 1 1 1 1 1 1 1 1 1 1 1 1 1 1 1 1 1 1 1 1 1 1 1 1 1 1 1 1 1 1 1 1 1 1 1 1 1 
1 1 1 1 1 1 1 1 1 1 1 1 1 1 1 1 1 1 1 1 1 1 1 1 1 1 1 1 1 1 1 1 1 1 1 1 1 1 1 1 1 1 1 1 1 1 1 1 
1 1 1 1 1 1 1 1 1 1 1 1 1 1 1 1 1 1 1 1 1 1 1 1 1 1 1 1 1 1 1 1 1 1 1 1 1 1 1 1 1 1 1 1 1 1 1 1 
1 1 1 1 1 1 1 1 1 1 1 1 1 1 1 1 1 1 1 1 1 1 1 1 1 1 1 1 1 1 1 1 1 1 1 1 1 1 1 1 1 1 1 1 1 1 1 1 
1 1 1 1 1 1 1 1 1 1 1 1 1 1 1 1 1 1 1 1 1 1 1 1 1 1 1 1 1 1 1 1 1 1 1 1 1 1 1 1 1 1 1 1 1 1 1 1 
1 1 1 1 1 1 1 1 1 1 1 1 1 1 1 1 1 1 1 1 1 1 1 1 1 1 1 1 1 1 1 1 1 1 1 1 1 1 1 1 1 1 1 1 1 1 1 1 
1 1 1 1 1 1 1 1 1 1 1 1 1 1 1 1 1 1 1 1 1 1 1 1 1 1 1 1 1 1 1 1 1 1 1 1 1 1 1 1 1 1 1 1 1 1 1 1 
0.01 0.01 0.01 0.01 0.01 0.01 0.01 0.01 0.01 0.01 0.01 0.01 0.01 0.01 0.01 0.01 0.01 0.01 0.01 0.01 0.01 0.01 0.01 0.01 0.01 0.01 0.01 0.01 0.01 0.01 0.01 0.01 0.01 0.01 0.01 0.01 0.01 0.01 0.01 0.01 0.01 0.01 0.01 0.01 0.01 0.01 0.01 0.01 
0.02 0.02 0.02 0.02 0.02 0.02 0.02 0.02 0.02 0.02 0.02 0.02 0.02 0.02 0.02 0.02 0.02 0.02 0.02 0.02 0.02 0.02 0.02 0.02 0.02 0.02 0.02 0.02 0.02 0.02 0.02 0.02 0.02 0.02 0.02 0.02 0.02 0.02 0.02 0.02 0.02 0.02 0.02 0.02 0.02 0.02 0.02 0.02 
0.03 0.03 0.03 0.03 0.03 0.03 0.03 0.03 0.03 0.03 0.03 0.03 0.03 0.03 0.03 0.03 0.03 0.03 0.03 0.03 0.03 0.03 0.03 0.03 0.03 0.03 0.03 0.03 0.03 0.03 0.03 0.03 0.03 0.03 0.03 0.03 0.03 0.03 0.03 0.03 0.03 0.03 0.03 0.03 0.03 0.03 0.03 0.03 
0.04 0.04 0.04 0.04 0.04 0.04 0.04 0.04 0.04 0.04 0.04 0.04 0.04 0.04 0.04 0.04 0.04 0.04 0.04 0.04 0.04 0.04 0.04 0.04 0.04 0.04 0.04 0.04 0.04 0.04 0.04 0.04 0.04 0.04 0.04 0.04 0.04 0.04 0.04 0.04 0.04 0.04 0.04 0.04 0.04 0.04 0.04 0.04 
0.05 0.05 0.05 0.05 0.05 0.05 0.05 0.05 0.05 0.05 0.05 0.05 0.05 0.05 0.05 0.05 0.05 0.05 0.05 0.05 0.05 0.05 0.05 0.05 0.05 0.05 0.05 0.05 0.05 0.05 0.05 0.05 0.05 0.05 0.05 0.05 0.05 0.05 0.05 0.05 0.05 0.05 0.05 0.05 0.05 0.05 0.05 0.05 
0.06 0.06 0.06 0.06 0.06 0.06 0.06 0.06 0.06 0.06 0.06 0.06 0.06 0.06 0.06 0.06 0.06 0.06 0.06 0.06 0.06 0.06 0.06 0.06 0.06 0.06 0.06 0.06 0.06 0.06 0.06 0.06 0.06 0.06 0.06 0.06 0.06 0.06 0.06 0.06 0.06 0.06 0.06 0.06 0.06 0.06 0.06 0.06 
0.07 0.07 0.07 0.07 0.07 0.07 0.07 0.07 0.07 0.07 0.07 0.07 0.07 0.07 0.07 0.07 0.07 0.07 0.07 0.07 0.07 0.07 0.07 0.07 0.07 0.07 0.07 0.07 0.07 0.07 0.07 0.07 0.07 0.07 0.07 0.07 0.07 0.07 0.07 0.07 0.07 0.07 0.07 0.07 0.07 0.07 0.07 0.07 
0.08 0.08 0.08 0.08 0.08 0.08 0.08 0.08 0.08 0.08 0.08 0.08 0.08 0.08 0.08 0.08 0.08 0.08 0.08 0.08 0.08 0.08 0.08 0.08 0.08 0.08 0.08 0.08 0.08 0.08 0.08 0.08 0.08 0.08 0.08 0.08 0.08 0.08 0.08 0.08 0.08 0.08 0.08 0.08 0.08 0.08 0.08 0.08 
0.09 0.09 0.09 0.09 0.09 0.09 0.09 0.09 0.09 0.09 0.09 0.09 0.09 0.09 0.09 0.09 0.09 0.09 0.09 0.09 0.09 0.09 0.09 0.09 0.09 0.09 0.09 0.09 0.09 0.09 0.09 0.09 0.09 0.09 0.09 0.09 0.09 0.09 0.09 0.09 0.09 0.09 0.09 0.09 0.09 0.09 0.09 0.09 
0.1 0.1 0.1 0.1 0.1 0.1 0.1 0.1 0.1 0.1 0.1 0.1 0.1 0.1 0.1 0.1 0.1 0.1 0.1 0.1 0.1 0.1 0.1 0.1 0.1 0.1 0.1 0.1 0.1 0.1 0.1 0.1 0.1 0.1 0.1 0.1 0.1 0.1 0.1 0.1 0.1 0.1 0.1 0.1 0.1 0.1 0.1 0.1 
0.5 0.5 0.5 0.5 0.5 0.5 0.5 0.5 0.5 0.5 0.5 0.5 0.5 0.5 0.5 0.5 0.5 0.5 0.5 0.5 0.5 0.5 0.5 0.5 0.5 0.5 0.5 0.5 0.5 0.5 0.5 0.5 0.5 0.5 0.5 0.5 0.5 0.5 0.5 0.5 0.5 0.5 0.5 0.5 0.5 0.5 0.5 0.5 
1 1 1 1 1 1 1 1 1 1 1 1 1 1 1 1 1 1 1 1 1 1 1 1 1 1 1 1 1 1 1 1 1 1 1 1 1 1 1 1 1 1 1 1 1 1 1 1 
